\ This file has been generated by DOcplex
\ ENCODING=ISO-8859-1
\Problem name: random_problem.lp

Minimize
 obj: 8 x0 + 9 x1 + [ 10 x0^2 - 16 x0*x1 - 20 x1^2 ]/2
Subject To
 c0: 2 x0 = 0

Bounds
 0 <= x0 <= 1
 0 <= x1 <= 1

Binaries
 x0 x1
End
